shape/shape-3-3_3-3-2_1.mps.lp
\ENCODING=ISO-8859-1
\Problem name: 

Minimize
 obj: 5 p_00 + 46 p_01 + 84 p_02 + 34 x_00 + 57 x_01 + x_02 + q_00 + q_01
      + q_02
Subject To
 c1: 22 p_00 + p_01 + 58 p_02 + 94 x_00 + 35 x_01 + 90 x_02 >= 225
 c2: 60 p_00 + 40 p_01 + 90 p_02 + 70 x_00 + 23 x_01 + 97 x_02 >= 285
 c3: 2 p_00 + 12 p_01 + 89 p_02 + 12 x_00 + 76 x_01 + 30 x_02 >= 165
 c4: 32 x_00 + 44 x_01 + 67 x_02 + 65 q_00 + 43 q_01 + 51 q_02 >= 226
 c5: 32 x_00 + 99 x_01 + 68 x_02 + 71 q_00 + 78 q_01 + 82 q_02 >= 322
 c6: 38 x_00 + 57 x_01 + 48 x_02 + 16 q_00 + 88 q_01 + 70 q_02 >= 237
Bounds
 0 <= p_00 <= 1
 0 <= p_01 <= 1
 0 <= p_02 <= 1
 0 <= x_00 <= 1
 0 <= x_01 <= 1
 0 <= x_02 <= 1
 0 <= q_00 <= 1
 0 <= q_01 <= 1
 0 <= q_02 <= 1
Binaries
 p_00  p_01  p_02  x_00  x_01  x_02  q_00  q_01  q_02 
End
